(set-logic QF_SLIA)
(declare-const result String)
(declare-const attack String)
(declare-const prefix RegLan)
(declare-const infix RegLan)
(declare-const postfix RegLan)
(declare-const postfixs String)

(assert (str.in_re attack (re.++ prefix ((_ re.loop 5000 5000) infix) postfix)))
(assert (= prefix 
     (re.++  (re.++  (str.to_re "\x48") (re.++  (str.to_re "\x62") (re.++  (str.to_re "\x62") (re.++  (str.to_re "\x54") (re.++  (str.to_re "\x56") (re.++  (str.to_re "\x5c\x2f") (re.++ (re.+ (re.range "0" "9") ) (re.++  (str.to_re "\x5c\x2e") (re.++ (re.+ (re.range "0" "9") ) (re.++  (str.to_re "\x5c\x2e") (re.++ (re.+ (re.range "0" "9") ) (re.++  (str.to_re "\x20")  (str.to_re "\x5c\x28")))))))))))))  (re.inter (re.* re.allchar )  (re.++   (re.union (re.union (str.to_re "\t") (str.to_re "\n") (str.to_re "\r") (str.to_re " ")) (re.inter re.allchar (re.comp (re.union (str.to_re "\t") (str.to_re "\n") (str.to_re "\r") (str.to_re " "))))) (re.*   (re.union (re.union (str.to_re "\t") (str.to_re "\n") (str.to_re "\r") (str.to_re " ")) (re.inter re.allchar (re.comp (re.union (str.to_re "\t") (str.to_re "\n") (str.to_re "\r") (str.to_re " "))))) ))))
))
(assert (= infix 
         (re.++ (re.*  (re.union  (str.to_re "\x0a")  (str.to_re "\x0d")) ) (re.++  (str.to_re "\x26") (re.++  (re.++ (re.*  (re.union  (str.to_re "\x0a")  (str.to_re "\x0d")) ) (re.++  (re.++  (str.to_re "\x3b") (re.++ (re.opt  (str.to_re "\x20") ) (re.++ (re.+  (re.union (re.range "\x41" "\x5a") (re.range "\x61" "\x7a")) ) (re.++ (re.opt  (str.to_re "\x20") ) (re.++  (str.to_re "\x3b") (re.++ (re.*  (re.union  (str.to_re "\x0a")  (str.to_re "\x0d")) )  (re.++  (str.to_re "\x32") (re.++  (str.to_re "\x30") (re.++  (str.to_re "\x31") (re.range "\x31" "\x39")))))))))) (re.*  (re.union  (str.to_re "\x0a")  (str.to_re "\x0d")) ))) (re.++  (str.to_re "\x26") (re.++ (re.*  (re.union  (str.to_re "\x0a")  (str.to_re "\x0d")) ) (re.++  (str.to_re "\x26") (re.+ re.allchar )))))))
))
(assert (= postfix 
        (re.inter  (re.inter  (re.++  (str.to_re "\x3b") (re.++  (str.to_re "\x41") (re.++  (str.to_re "\x3b") (re.++  (str.to_re "\x32") (re.++  (str.to_re "\x30") (re.++  (str.to_re "\x31") (re.++  (str.to_re "\x31") (re.*  (re.union (re.union (str.to_re "\t") (str.to_re "\n") (str.to_re "\r") (str.to_re " ")) (re.inter re.allchar (re.comp (re.union (str.to_re "\t") (str.to_re "\n") (str.to_re "\r") (str.to_re " "))))) )))))))) (re.comp  (re.inter (re.* re.allchar )  (re.++   (re.union (re.union (str.to_re "\t") (str.to_re "\n") (str.to_re "\r") (str.to_re " ")) (re.inter re.allchar (re.comp (re.union (str.to_re "\t") (str.to_re "\n") (str.to_re "\r") (str.to_re " "))))) (re.*   (re.union (re.union (str.to_re "\t") (str.to_re "\n") (str.to_re "\r") (str.to_re " ")) (re.inter re.allchar (re.comp (re.union (str.to_re "\t") (str.to_re "\n") (str.to_re "\r") (str.to_re " "))))) )))))  (re.inter  (re.++  (str.to_re "\x3b") (re.++  (str.to_re "\x41") (re.++  (str.to_re "\x3b") (re.++  (str.to_re "\x32") (re.++  (str.to_re "\x30") (re.++  (str.to_re "\x31") (re.++  (str.to_re "\x31") (re.*  (re.union (re.union (str.to_re "\t") (str.to_re "\n") (str.to_re "\r") (str.to_re " ")) (re.inter re.allchar (re.comp (re.union (str.to_re "\t") (str.to_re "\n") (str.to_re "\r") (str.to_re " "))))) )))))))) (re.comp  (re.++  (re.inter (re.* re.allchar )  (re.++   (re.union (re.union (str.to_re "\t") (str.to_re "\n") (str.to_re "\r") (str.to_re " ")) (re.inter re.allchar (re.comp (re.union (str.to_re "\t") (str.to_re "\n") (str.to_re "\r") (str.to_re " "))))) (re.*   (re.union (re.union (str.to_re "\t") (str.to_re "\n") (str.to_re "\r") (str.to_re " ")) (re.inter re.allchar (re.comp (re.union (str.to_re "\t") (str.to_re "\n") (str.to_re "\r") (str.to_re " "))))) )))  (str.to_re "\x5c\x29")))) )
))
(assert (str.in_re postfixs postfix))
(assert (>= (str.len postfixs) 1))
(assert (= result (str.++ attack postfixs)))
(check-sat)
(get-model)